
Gurobi 10.0.1 (linux64) logging started Sun Nov 26 15:37:36 2023

Set parameter LogFile to value "ArtificialInstance/ExperimentV2/S4T4K2/AdSp/gurobi1.txt"
Gurobi Optimizer version 10.0.1 build v10.0.1rc0 (linux64)

CPU model: AMD EPYC 7H12 64-Core Processor, instruction set [SSE2|AVX|AVX2]
Thread count: 128 physical cores, 128 logical processors, using up to 32 threads

Academic license 656792 - for non-commercial use only - registered to b.___@student.vu.nl
Optimize a model with 11270 rows, 10815 columns and 41285 nonzeros
Model fingerprint: 0xb55b775d
Variable types: 0 continuous, 10815 integer (10815 binary)
Coefficient statistics:
  Matrix range     [1e+00, 1e+00]
  Objective range  [9e-01, 2e+01]
  Bounds range     [1e+00, 1e+00]
  RHS range        [1e+00, 1e+00]
Presolve removed 1947 rows and 1995 columns
Presolve time: 0.16s
Presolved: 9323 rows, 8820 columns, 34706 nonzeros
Variable types: 0 continuous, 8820 integer (8820 binary)
Found heuristic solution: objective 341.4782894

Root relaxation: objective 6.551452e+01, 7452 iterations, 0.42 seconds (0.27 work units)

    Nodes    |    Current Node    |     Objective Bounds      |     Work
 Expl Unexpl |  Obj  Depth IntInf | Incumbent    BestBd   Gap | It/Node Time

     0     0   65.51452    0  841  341.47829   65.51452  80.8%     -    0s
H    0     0                      83.7768484   65.51452  21.8%     -    0s
H    0     0                      67.1323405   65.51452  2.41%     -    1s
     0     0   66.39352    0 1059   67.13234   66.39352  1.10%     -    1s
     0     0   66.39352    0   96   67.13234   66.39352  1.10%     -    1s
     0     0     cutoff    0        67.13234   67.13234  0.00%     -    1s

Explored 1 nodes (13909 simplex iterations) in 1.66 seconds (0.97 work units)
Thread count was 32 (of 128 available processors)

Solution count 3: 67.1323 83.7768 341.478 

Optimal solution found (tolerance 1.00e-04)
Best objective 6.713234046695e+01, best bound 6.713234046695e+01, gap 0.0000%
